50, 125049
5002, 47
5001, 7
5003, 33
5004, 27
5003, 28
5000, 9
5000, 12
5001, 48
5003, 27
5003, 48
5001, 19
5003, 28
5003, 20
5003, 39
5001, 23
5002, 49
5000, 24
5004, 46
5004, 5
5003, 50
5001, 3
5002, 47
5003, 42
5004, 28
5004, 16
5003, 14
5000, 15
5001, 48
5002, 30
5000, 47
5001, 38
5001, 12
5001, 26
5001, 41
5000, 44
5000, 37
5003, 9
5002, 16
5004, 6
5004, 29
5003, 11
5000, 8
5004, 23
5004, 31
5000, 37
5004, 12
5000, 2
5000, 12
5002, 24
5001, 46
